TITLE : Patch_test_for_H8_element
        (14:59:3 on June 20, 2024, Thursday)

C O N T R O L   I N F O R M A T I O N

      NUMBER OF NODAL POINTS . . . . . . . . . . (NUMNP)  =    16
      NUMBER OF ELEMENT GROUPS . . . . . . . . . (NUMEG)  =     1
      NUMBER OF LOAD CASES . . . . . . . . . . . (NLCASE) =     1
      SOLUTION MODE  . . . . . . . . . . . . . . (MODEX)  =     1
         EQ.0, DATA CHECK
         EQ.1, EXECUTION

 N O D A L   P O I N T   D A T A

    NODE       BOUNDARY                         NODAL POINT
   NUMBER  CONDITION  CODES                     COORDINATES
        1    1    1    1       0.00000e+00    0.00000e+00    0.00000e+00
        2    0    1    1       2.50000e+00    0.00000e+00    0.00000e+00
        3    0    0    0       2.50000e+00    3.00000e+00    0.00000e+00
        4    0    0    1       0.00000e+00    2.00000e+00    0.00000e+00
        5    0    0    0       5.00000e-01    5.00000e-01    0.00000e+00
        6    0    0    0       2.00000e+00    7.50000e-01    0.00000e+00
        7    0    0    0       1.75000e+00    1.75000e+00    0.00000e+00
        8    0    0    0       6.50000e-01    1.60000e+00    0.00000e+00
        9    0    0    0       0.00000e+00    0.00000e+00    4.00000e+00
       10    0    0    0       2.50000e+00    0.00000e+00    4.00000e+00
       11    0    0    0       2.50000e+00    3.00000e+00    4.00000e+00
       12    0    0    0       0.00000e+00    2.00000e+00    4.00000e+00
       13    0    0    0       5.00000e-01    5.00000e-01    4.00000e+00
       14    0    0    0       2.00000e+00    7.50000e-01    4.00000e+00
       15    0    0    0       1.75000e+00    1.75000e+00    4.00000e+00
       16    0    0    0       6.50000e-01    1.60000e+00    4.00000e+00

 EQUATION NUMBERS

   NODE NUMBER   DEGREES OF FREEDOM
        N           X    Y    Z
        1           0    0    0
        2           1    0    0
        3           2    3    4
        4           5    6    0
        5           7    8    9
        6          10   11   12
        7          13   14   15
        8          16   17   18
        9          19   20   21
       10          22   23   24
       11          25   26   27
       12          28   29   30
       13          31   32   33
       14          34   35   36
       15          37   38   39
       16          40   41   42

 L O A D   C A S E   D A T A

     LOAD CASE NUMBER . . . . . . . =     1
     NUMBER OF CONCENTRATED LOADS . =     8

    NODE       DIRECTION      LOAD
   NUMBER                   MAGNITUDE
      1            1       -2.00000e+01
      2            1        3.00000e+01
      3            1        2.00000e+01
      4            1       -3.00000e+01
      9            1       -2.00000e+01
     10            1        3.00000e+01
     11            1        2.00000e+01
     12            1       -3.00000e+01

 E L E M E N T   G R O U P   D A T A


 E L E M E N T   D E F I N I T I O N

 ELEMENT TYPE  . . . . . . . . . . . . .( NPAR(1) ) . . =    4
     EQ.1, TRUSS ELEMENTS
     EQ.2, ELEMENTS CURRENTLY
     EQ.3, NOT AVAILABLE

 NUMBER OF ELEMENTS. . . . . . . . . . .( NPAR(2) ) . . =    5

 M A T E R I A L   D E F I N I T I O N

 NUMBER OF DIFFERENT SETS OF MATERIAL
 AND CROSS-SECTIONAL  CONSTANTS  . . . .( NPAR(3) ) . . =    1

  SET       YOUNG'S       POISSON'S
 NUMBER     MODULUS         RATIO
               E              NU
    1     1.00000e+03     3.00000e-01


 E L E M E N T   I N F O R M A T I O N
  ELEMENT     NODE     NODE     NODE     NODE     NODE     NODE     NODE     NODE       MATERIAL
 NUMBER-N      1        2        3        4        5        6        7        8       SET NUMBER
     1          1        2        6        5        9       10       14       13           1
     2          2        3        7        6       10       11       15       14           1
     3          3        4        8        7       11       12       16       15           1
     4          1        5        8        4        9       13       16       12           1
     5          5        6        7        8       13       14       15       16           1

	TOTAL SYSTEM DATA

     NUMBER OF EQUATIONS . . . . . . . . . . . . . .(NEQ) = 42
     NUMBER OF MATRIX ELEMENTS . . . . . . . . . . .(NWK) = 892
     MAXIMUM HALF BANDWIDTH  . . . . . . . . . . . .(MK ) = 41
     MEAN HALF BANDWIDTH . . . . . . . . . . . . . .(MM ) = 21


 LOAD CASE    1


 D I S P L A C E M E N T S

  NODE           X-DISPLACEMENT    Y-DISPLACEMENT    Z-DISPLACEMENT
    1               0.00000e+00       0.00000e+00       0.00000e+00
    2               2.50000e-02       0.00000e+00       0.00000e+00
    3               2.50000e-02      -9.00000e-03      -1.92441e-17
    4              -7.31534e-17      -6.00000e-03       0.00000e+00
    5               5.00000e-03      -1.50000e-03      -4.54619e-18
    6               2.00000e-02      -2.25000e-03      -5.79908e-18
    7               1.75000e-02      -5.25000e-03      -1.11552e-17
    8               6.50000e-03      -4.80000e-03      -8.68147e-18
    9              -2.78965e-16       2.06274e-16      -1.20000e-02
   10               2.50000e-02      -1.98741e-17      -1.20000e-02
   11               2.50000e-02      -9.00000e-03      -1.20000e-02
   12              -9.89389e-17      -6.00000e-03      -1.20000e-02
   13               5.00000e-03      -1.50000e-03      -1.20000e-02
   14               2.00000e-02      -2.25000e-03      -1.20000e-02
   15               1.75000e-02      -5.25000e-03      -1.20000e-02
   16               6.50000e-03      -4.80000e-03      -1.20000e-02

 S T R E S S  C A L C U L A T I O N S  F O R  E L E M E N T  G R O U P    1

  ELEMENT       S11               S22               S33               S12               S13               S23
    1       3.62740e+00       1.23582e+01       4.23317e+00       9.03846e-01      -1.60096e+00       2.78846e-01
    2      -9.27386e+00      -1.10750e+01      -6.66716e+00      -2.23265e+00      -1.03318e+00       4.94020e-01
    3      -3.41246e+00      -4.80896e+00      -2.56017e+00       1.48894e+00      -2.22089e+00      -2.40911e-01
    4      -8.97473e+00      -1.50907e+01      -7.31336e+00       2.61647e+00      -1.79408e+00       9.68479e-01
    5      -8.41259e+00      -1.96294e+01      -8.41259e+00       1.45455e+00      -2.37483e+00       4.36364e-01


 S O L U T I O N   T I M E   L O G   I N   S E C 

     TIME FOR INPUT PHASE = 1.52600e-03
     TIME FOR CALCULATION OF STIFFNESS MATRIX = 2.37000e-04
     TIME FOR FACTORIZATION AND LOAD CASE SOLUTIONS = 4.10000e-04

     T O T A L   S O L U T I O N   T I M E = 2.17300e-03

